(set-info :smt-lib-version 2.6)
(set-logic QF_AX)
(set-info :source |
Benchmarks used in the followin paper:
Big proof engines as little proof engines: new results on rewrite-based satisfiability procedure
Alessandro Armando, Maria Paola Bonacina, Silvio Ranise, Stephan Schulz. 
PDPAR'05
http://www.ai.dist.unige.it/pdpar05/


|)
(set-info :category "crafted")
(set-info :status sat)
(declare-sort Index 0)
(declare-sort Element 0)
(declare-fun a_638 () (Array Index Element))
(declare-fun a_639 () (Array Index Element))
(declare-fun a_640 () (Array Index Element))
(declare-fun a_641 () (Array Index Element))
(declare-fun a_642 () (Array Index Element))
(declare-fun a_643 () (Array Index Element))
(declare-fun a_644 () (Array Index Element))
(declare-fun a_645 () (Array Index Element))
(declare-fun a_646 () (Array Index Element))
(declare-fun a_647 () (Array Index Element))
(declare-fun a_648 () (Array Index Element))
(declare-fun a_649 () (Array Index Element))
(declare-fun a_650 () (Array Index Element))
(declare-fun a_651 () (Array Index Element))
(declare-fun a_652 () (Array Index Element))
(declare-fun a_653 () (Array Index Element))
(declare-fun a_654 () (Array Index Element))
(declare-fun a_655 () (Array Index Element))
(declare-fun a_656 () (Array Index Element))
(declare-fun a_657 () (Array Index Element))
(declare-fun a_658 () (Array Index Element))
(declare-fun a_659 () (Array Index Element))
(declare-fun a_660 () (Array Index Element))
(declare-fun a_661 () (Array Index Element))
(declare-fun a_662 () (Array Index Element))
(declare-fun a_663 () (Array Index Element))
(declare-fun a_664 () (Array Index Element))
(declare-fun a_665 () (Array Index Element))
(declare-fun a_666 () (Array Index Element))
(declare-fun a_667 () (Array Index Element))
(declare-fun a_668 () (Array Index Element))
(declare-fun a_669 () (Array Index Element))
(declare-fun a_670 () (Array Index Element))
(declare-fun a_671 () (Array Index Element))
(declare-fun a_672 () (Array Index Element))
(declare-fun a_673 () (Array Index Element))
(declare-fun a_674 () (Array Index Element))
(declare-fun a_675 () (Array Index Element))
(declare-fun a_676 () (Array Index Element))
(declare-fun a_677 () (Array Index Element))
(declare-fun a1 () (Array Index Element))
(declare-fun e1 () Element)
(declare-fun e10 () Element)
(declare-fun e11 () Element)
(declare-fun e12 () Element)
(declare-fun e13 () Element)
(declare-fun e14 () Element)
(declare-fun e15 () Element)
(declare-fun e16 () Element)
(declare-fun e17 () Element)
(declare-fun e18 () Element)
(declare-fun e19 () Element)
(declare-fun e2 () Element)
(declare-fun e20 () Element)
(declare-fun e3 () Element)
(declare-fun e4 () Element)
(declare-fun e5 () Element)
(declare-fun e6 () Element)
(declare-fun e7 () Element)
(declare-fun e8 () Element)
(declare-fun e9 () Element)
(declare-fun i1 () Index)
(declare-fun i10 () Index)
(declare-fun i11 () Index)
(declare-fun i12 () Index)
(declare-fun i13 () Index)
(declare-fun i14 () Index)
(declare-fun i15 () Index)
(declare-fun i16 () Index)
(declare-fun i17 () Index)
(declare-fun i18 () Index)
(declare-fun i19 () Index)
(declare-fun i2 () Index)
(declare-fun i20 () Index)
(declare-fun i3 () Index)
(declare-fun i4 () Index)
(declare-fun i5 () Index)
(declare-fun i6 () Index)
(declare-fun i7 () Index)
(declare-fun i8 () Index)
(declare-fun i9 () Index)
(assert (= a_638 (store a1 i1 e1)))
(assert (= a_639 (store a_638 i2 e2)))
(assert (= a_640 (store a_639 i3 e3)))
(assert (= a_641 (store a_640 i4 e4)))
(assert (= a_642 (store a_641 i5 e5)))
(assert (= a_643 (store a_642 i6 e6)))
(assert (= a_644 (store a_643 i7 e7)))
(assert (= a_645 (store a_644 i8 e8)))
(assert (= a_646 (store a_645 i9 e9)))
(assert (= a_647 (store a_646 i10 e10)))
(assert (= a_648 (store a_647 i11 e11)))
(assert (= a_649 (store a_648 i12 e12)))
(assert (= a_650 (store a_649 i13 e13)))
(assert (= a_651 (store a_650 i14 e14)))
(assert (= a_652 (store a_651 i15 e15)))
(assert (= a_653 (store a_652 i16 e16)))
(assert (= a_654 (store a_653 i17 e17)))
(assert (= a_655 (store a_654 i18 e18)))
(assert (= a_656 (store a_655 i19 e19)))
(assert (= a_657 (store a_656 i1 e1)))
(assert (= a_658 (store a1 i16 e16)))
(assert (= a_659 (store a_658 i4 e4)))
(assert (= a_660 (store a_659 i7 e7)))
(assert (= a_661 (store a_660 i17 e17)))
(assert (= a_662 (store a_661 i13 e13)))
(assert (= a_663 (store a_662 i8 e8)))
(assert (= a_664 (store a_663 i20 e20)))
(assert (= a_665 (store a_664 i3 e3)))
(assert (= a_666 (store a_665 i6 e6)))
(assert (= a_667 (store a_666 i14 e14)))
(assert (= a_668 (store a_667 i12 e12)))
(assert (= a_669 (store a_668 i5 e5)))
(assert (= a_670 (store a_669 i10 e10)))
(assert (= a_671 (store a_670 i15 e15)))
(assert (= a_672 (store a_671 i1 e1)))
(assert (= a_673 (store a_672 i11 e11)))
(assert (= a_674 (store a_673 i19 e19)))
(assert (= a_675 (store a_674 i2 e2)))
(assert (= a_676 (store a_675 i18 e18)))
(assert (= a_677 (store a_676 i9 e9)))
(assert (not (= i19 i20)))
(assert (not (= i18 i20)))
(assert (not (= i18 i19)))
(assert (not (= i17 i20)))
(assert (not (= i17 i19)))
(assert (not (= i17 i18)))
(assert (not (= i16 i20)))
(assert (not (= i16 i19)))
(assert (not (= i16 i18)))
(assert (not (= i16 i17)))
(assert (not (= i15 i20)))
(assert (not (= i15 i19)))
(assert (not (= i15 i18)))
(assert (not (= i15 i17)))
(assert (not (= i15 i16)))
(assert (not (= i14 i20)))
(assert (not (= i14 i19)))
(assert (not (= i14 i18)))
(assert (not (= i14 i17)))
(assert (not (= i14 i16)))
(assert (not (= i14 i15)))
(assert (not (= i13 i20)))
(assert (not (= i13 i19)))
(assert (not (= i13 i18)))
(assert (not (= i13 i17)))
(assert (not (= i13 i16)))
(assert (not (= i13 i15)))
(assert (not (= i13 i14)))
(assert (not (= i12 i20)))
(assert (not (= i12 i19)))
(assert (not (= i12 i18)))
(assert (not (= i12 i17)))
(assert (not (= i12 i16)))
(assert (not (= i12 i15)))
(assert (not (= i12 i14)))
(assert (not (= i12 i13)))
(assert (not (= i11 i20)))
(assert (not (= i11 i19)))
(assert (not (= i11 i18)))
(assert (not (= i11 i17)))
(assert (not (= i11 i16)))
(assert (not (= i11 i15)))
(assert (not (= i11 i14)))
(assert (not (= i11 i13)))
(assert (not (= i11 i12)))
(assert (not (= i10 i20)))
(assert (not (= i10 i19)))
(assert (not (= i10 i18)))
(assert (not (= i10 i17)))
(assert (not (= i10 i16)))
(assert (not (= i10 i15)))
(assert (not (= i10 i14)))
(assert (not (= i10 i13)))
(assert (not (= i10 i12)))
(assert (not (= i10 i11)))
(assert (not (= i9 i20)))
(assert (not (= i9 i19)))
(assert (not (= i9 i18)))
(assert (not (= i9 i17)))
(assert (not (= i9 i16)))
(assert (not (= i9 i15)))
(assert (not (= i9 i14)))
(assert (not (= i9 i13)))
(assert (not (= i9 i12)))
(assert (not (= i9 i11)))
(assert (not (= i9 i10)))
(assert (not (= i8 i20)))
(assert (not (= i8 i19)))
(assert (not (= i8 i18)))
(assert (not (= i8 i17)))
(assert (not (= i8 i16)))
(assert (not (= i8 i15)))
(assert (not (= i8 i14)))
(assert (not (= i8 i13)))
(assert (not (= i8 i12)))
(assert (not (= i8 i11)))
(assert (not (= i8 i10)))
(assert (not (= i8 i9)))
(assert (not (= i7 i20)))
(assert (not (= i7 i19)))
(assert (not (= i7 i18)))
(assert (not (= i7 i17)))
(assert (not (= i7 i16)))
(assert (not (= i7 i15)))
(assert (not (= i7 i14)))
(assert (not (= i7 i13)))
(assert (not (= i7 i12)))
(assert (not (= i7 i11)))
(assert (not (= i7 i10)))
(assert (not (= i7 i9)))
(assert (not (= i7 i8)))
(assert (not (= i6 i20)))
(assert (not (= i6 i19)))
(assert (not (= i6 i18)))
(assert (not (= i6 i17)))
(assert (not (= i6 i16)))
(assert (not (= i6 i15)))
(assert (not (= i6 i14)))
(assert (not (= i6 i13)))
(assert (not (= i6 i12)))
(assert (not (= i6 i11)))
(assert (not (= i6 i10)))
(assert (not (= i6 i9)))
(assert (not (= i6 i8)))
(assert (not (= i6 i7)))
(assert (not (= i5 i20)))
(assert (not (= i5 i19)))
(assert (not (= i5 i18)))
(assert (not (= i5 i17)))
(assert (not (= i5 i16)))
(assert (not (= i5 i15)))
(assert (not (= i5 i14)))
(assert (not (= i5 i13)))
(assert (not (= i5 i12)))
(assert (not (= i5 i11)))
(assert (not (= i5 i10)))
(assert (not (= i5 i9)))
(assert (not (= i5 i8)))
(assert (not (= i5 i7)))
(assert (not (= i5 i6)))
(assert (not (= i4 i20)))
(assert (not (= i4 i19)))
(assert (not (= i4 i18)))
(assert (not (= i4 i17)))
(assert (not (= i4 i16)))
(assert (not (= i4 i15)))
(assert (not (= i4 i14)))
(assert (not (= i4 i13)))
(assert (not (= i4 i12)))
(assert (not (= i4 i11)))
(assert (not (= i4 i10)))
(assert (not (= i4 i9)))
(assert (not (= i4 i8)))
(assert (not (= i4 i7)))
(assert (not (= i4 i6)))
(assert (not (= i4 i5)))
(assert (not (= i3 i20)))
(assert (not (= i3 i19)))
(assert (not (= i3 i18)))
(assert (not (= i3 i17)))
(assert (not (= i3 i16)))
(assert (not (= i3 i15)))
(assert (not (= i3 i14)))
(assert (not (= i3 i13)))
(assert (not (= i3 i12)))
(assert (not (= i3 i11)))
(assert (not (= i3 i10)))
(assert (not (= i3 i9)))
(assert (not (= i3 i8)))
(assert (not (= i3 i7)))
(assert (not (= i3 i6)))
(assert (not (= i3 i5)))
(assert (not (= i3 i4)))
(assert (not (= i2 i20)))
(assert (not (= i2 i19)))
(assert (not (= i2 i18)))
(assert (not (= i2 i17)))
(assert (not (= i2 i16)))
(assert (not (= i2 i15)))
(assert (not (= i2 i14)))
(assert (not (= i2 i13)))
(assert (not (= i2 i12)))
(assert (not (= i2 i11)))
(assert (not (= i2 i10)))
(assert (not (= i2 i9)))
(assert (not (= i2 i8)))
(assert (not (= i2 i7)))
(assert (not (= i2 i6)))
(assert (not (= i2 i5)))
(assert (not (= i2 i4)))
(assert (not (= i2 i3)))
(assert (not (= i1 i20)))
(assert (not (= i1 i19)))
(assert (not (= i1 i18)))
(assert (not (= i1 i17)))
(assert (not (= i1 i16)))
(assert (not (= i1 i15)))
(assert (not (= i1 i14)))
(assert (not (= i1 i13)))
(assert (not (= i1 i12)))
(assert (not (= i1 i11)))
(assert (not (= i1 i10)))
(assert (not (= i1 i9)))
(assert (not (= i1 i8)))
(assert (not (= i1 i7)))
(assert (not (= i1 i6)))
(assert (not (= i1 i5)))
(assert (not (= i1 i4)))
(assert (not (= i1 i3)))
(assert (not (= i1 i2)))
(assert (not (= a_657 a_677)))
(check-sat)
(exit)
